20 380
0 1 25.7
0 2 33.3
0 3 39.3
0 4 30.7
0 5 18.5
0 6 35.8
0 7 21.7
0 8 33.8
0 9 19.9
0 10 42.2
0 11 19.1
0 12 45.4
0 13 35.4
0 14 46.2
0 15 2.3
0 16 11.8
0 17 16.3
0 18 32.7
0 19 46.9
1 2 57.0
1 3 16.6
1 4 51.0
1 5 26.1
1 6 43.4
1 7 40.9
1 8 12.9
1 9 19.9
1 10 41.0
1 11 13.5
1 12 37.1
1 13 36.4
1 14 49.6
1 15 27.7
1 16 21.5
1 17 39.7
1 18 29.4
1 19 30.6
2 3 66.6
2 4 11.6
2 5 35.0
2 6 60.5
2 7 18.4
2 8 66.9
2 9 52.5
2 10 71.3
2 11 45.7
2 12 58.7
2 13 43.6
2 14 71.9
2 15 32.3
2 16 36.0
2 17 31.6
2 18 47.0
2 19 67.2
3 4 58.4
3 5 32.0
3 6 59.8
3 7 48.7
3 8 23.5
3 9 36.4
3 10 55.9
3 11 21.4
3 12 28.1
3 13 34.2
3 14 65.1
3 15 41.6
3 16 31.2
3 17 54.8
3 18 26.6
3 19 16.8
4 5 26.4
4 6 63.0
4 7 10.1
4 8 62.1
4 9 50.5
4 10 71.9
4 11 38.4
4 12 47.6
4 13 32.5
4 14 74.2
4 15 30.4
4 16 29.5
4 17 34.7
4 18 36.6
4 19 57.1
5 6 53.5
5 7 16.8
5 8 38.5
5 9 33.3
5 10 57.6
5 11 12.7
5 12 28.0
5 13 16.9
5 14 63.2
5 15 20.4
5 16 7.7
5 17 33.6
5 18 15.0
5 19 33.0
6 7 56.1
6 8 39.4
6 9 23.7
6 10 14.2
6 11 48.1
6 12 77.1
6 13 70.1
6 14 11.4
6 15 34.8
6 16 45.9
6 17 28.9
6 18 65.8
6 19 73.7
7 8 52.1
7 9 41.4
7 10 63.8
7 11 28.4
7 12 40.9
7 13 26.3
7 14 67.0
7 15 21.9
7 16 19.4
7 17 29.5
7 18 28.8
7 19 48.8
8 9 19.5
8 10 33.0
8 11 26.2
8 12 48.7
8 13 49.2
8 14 42.8
8 15 35.3
8 16 33.0
8 17 44.5
8 18 42.2
8 19 40.0
9 10 24.4
9 11 25.3
9 12 54.0
9 13 48.7
9 14 31.2
9 15 20.4
9 16 25.8
9 17 25.9
9 18 43.5
9 19 50.0
10 11 49.4
10 12 77.5
10 13 73.1
10 14 10.3
10 15 41.9
10 16 50.0
10 17 40.1
10 18 67.7
10 19 71.5
11 12 29.0
11 13 24.2
11 14 56.4
11 15 21.4
11 16 9.8
11 17 35.3
11 18 18.3
11 19 28.0
12 13 15.2
12 14 85.2
12 15 47.6
12 16 33.7
12 17 61.4
12 18 13.0
12 19 14.3
13 14 79.4
13 15 37.2
13 16 24.2
13 17 50.0
13 18 7.6
13 19 26.5
14 15 45.4
14 16 55.6
14 17 40.3
14 18 74.6
14 19 80.2
15 16 13.9
15 17 14.1
15 18 34.8
15 19 49.2
16 17 27.8
16 18 21.0
16 19 36.0
17 18 48.4
17 19 63.2
18 19 20.6
